\* Problem: wagons *\

Minimize
 obj: + Cmax

Subject To
 caisse1: + x_3 + x_2 + x_1 = 1
 caisse2: + x_6 + x_5 + x_4 = 1
 caisse3: + x_9 + x_8 + x_7 = 1
 caisse4: + x_12 + x_11 + x_10 = 1
 caisse5: + x_15 + x_14 + x_13 = 1
 caisse6: + x_18 + x_17 + x_16 = 1
 caisse7: + x_21 + x_20 + x_19 = 1
 caisse8: + x_24 + x_23 + x_22 = 1
 caisse9: + x_27 + x_26 + x_25 = 1
 caisse10: + x_30 + x_29 + x_28 = 1
 caisse11: + x_33 + x_32 + x_31 = 1
 caisse12: + x_36 + x_35 + x_34 = 1
 caisse13: + x_39 + x_38 + x_37 = 1
 caisse14: + x_42 + x_41 + x_40 = 1
 caisse15: + x_45 + x_44 + x_43 = 1
 caisse16: + x_48 + x_47 + x_46 = 1
 chargeMax17: - Cmax + 25 x_46 + 25 x_43 + 9 x_40 + 33 x_37 + 13 x_34
 + 14 x_31 + 31 x_28 + 25 x_25 + 21 x_22 + 13 x_19 + 5 x_16 + 16 x_13
 + 17 x_10 + 8 x_7 + 6 x_4 + 34 x_1 <= 0
 chargeMax18: - Cmax + 25 x_47 + 25 x_44 + 9 x_41 + 33 x_38 + 13 x_35
 + 14 x_32 + 31 x_29 + 25 x_26 + 21 x_23 + 13 x_20 + 5 x_17 + 16 x_14
 + 17 x_11 + 8 x_8 + 6 x_5 + 34 x_2 <= 0
 chargeMax19: - Cmax + 25 x_48 + 25 x_45 + 9 x_42 + 33 x_39 + 13 x_36
 + 14 x_33 + 31 x_30 + 25 x_27 + 21 x_24 + 13 x_21 + 5 x_18 + 16 x_15
 + 17 x_12 + 8 x_9 + 6 x_6 + 34 x_3 <= 0

Bounds
 x_1 = 0
 x_2 = 0
 x_3 = 0
 x_4 = 0
 x_5 = 0
 x_6 = 0
 x_7 = 0
 x_8 = 0
 x_9 = 0
 x_10 = 0
 x_11 = 0
 x_12 = 0
 x_13 = 0
 x_14 = 0
 x_15 = 0
 x_16 = 0
 x_17 = 0
 x_18 = 0
 x_19 = 0
 x_20 = 0
 x_21 = 0
 x_22 = 0
 x_23 = 0
 x_24 = 0
 x_25 = 0
 x_26 = 0
 x_27 = 0
 x_28 = 0
 x_29 = 0
 x_30 = 0
 x_31 = 0
 x_32 = 0
 x_33 = 0
 x_34 = 0
 x_35 = 0
 x_36 = 0
 x_37 = 0
 x_38 = 0
 x_39 = 0
 x_40 = 0
 x_41 = 0
 x_42 = 0
 x_43 = 0
 x_44 = 0
 x_45 = 0
 x_46 = 0
 x_47 = 0
 x_48 = 0
 0 <= Cmax <= 100

End
